letting n =  10
letting blocks =  [[1, 1], [1, 2], [1, 4], [2, 1], [2, 2], [3, 2], [4, 5], [5, 1], [5, 3], [5, 9], [6, 3], [6, 5], [6, 6], [7, 3], [7, 4], [7, 7], [7, 10], [8, 10], [9, 5], [9, 7], [10, 1], [10, 2], [10, 4], [10, 5], [10, 7], [10, 10]]
